36 74 21 32 89 98 90 80 14 46 91 67 67 42 52 31 95 90 46 20 16 39 60 33 65 
54 64 46 37 31 62 52 33 87 35 73 64 32 11 96 96 10 20 83 23 48 62 58 91 39 
64 76 74 80 61 36 77 38 86 94 44 96 69 78 58 96 75 17 18 36 70 67 93 52 39 
53 97 49 40 45 37 84 35 50 71 32 67 56 72 53 49 74 32 62 89 11 16 27 73 37 
66 46 41 49 81 48 62 21 80 39 64 92 42 13 86 34 85 77 99 22 35 94 93 40 35 
722
26 17 13 99 77 65 35 62 30 20 56 98 59 86 30 41 41 95 62 72 61 12 80 42 69 
674
72 87 47 92 45 24 28 72 52 97 12 64 68 44 80 17 35 22 98 24 31 46 28 59 19 
631
11 97 28 72 34 12 13 36 90 40 18 52 92 30 36 55 16 85 43 11 98 51 22 87 94 
611
